NAME: rand_1/map2_180
TYPE: TSP
COMMENT: autogenerated using a wonderful map creator
DIMENSION: 210
EDGE_WEIGHT_TYPE: EUC_2D
NODE_COORD_SECTION
1 27.0 53.0
2 67.0 48.0
3 21.0 10.0
4 8.0 8.0
5 13.0 10.0
6 21.0 5.0
7 11.0 4.0
8 23.0 3.0
9 69.0 40.0
10 66.0 43.0
11 10.0 5.0
12 70.0 62.0
13 76.0 64.0
14 16.0 11.0
15 74.0 41.0
16 72.0 7.0
17 65.0 58.0
18 66.0 57.0
19 75.0 44.0
20 23.0 5.0
21 77.0 6.0
22 26.0 55.0
23 69.0 55.0
24 71.0 52.0
25 76.0 56.0
26 69.0 47.0
27 5.0 11.0
28 76.0 54.0
29 17.0 10.0
30 73.0 36.0
31 71.0 54.0
32 67.0 49.0
33 75.0 64.0
34 21.0 12.0
35 66.0 48.0
36 12.0 14.0
37 13.0 14.0
38 24.0 3.0
39 72.0 37.0
40 69.0 48.0
41 72.0 48.0
42 18.0 10.0
43 71.0 62.0
44 76.0 52.0
45 12.0 9.0
46 30.0 56.0
47 76.0 45.0
48 27.0 55.0
49 67.0 43.0
50 14.0 4.0
51 9.0 5.0
52 72.0 41.0
53 75.0 38.0
54 77.0 8.0
55 20.0 6.0
56 72.0 45.0
57 21.0 54.0
58 72.0 57.0
59 71.0 48.0
60 3.0 5.0
61 26.0 21.0
62 10.0 34.0
63 50.0 52.0
64 54.0 22.0
65 56.0 19.0
66 11.0 51.0
67 39.0 42.0
68 38.0 44.0
69 3.0 22.0
70 57.0 2.0
71 38.0 53.0
72 39.0 60.0
73 61.0 27.0
74 11.0 23.0
75 66.0 23.0
76 42.0 32.0
77 6.0 20.0
78 72.0 20.0
79 42.0 59.0
80 44.0 56.0
81 10.0 54.0
82 55.0 22.0
83 45.0 30.0
84 43.0 60.0
85 17.0 23.0
86 5.0 21.0
87 56.0 39.0
88 74.0 20.0
89 6.0 50.0
90 9.0 28.0
91 41.0 26.0
92 55.0 52.0
93 53.0 9.0
94 10.0 38.0
95 56.0 5.0
96 34.0 23.0
97 36.0 20.0
98 57.0 52.0
99 39.0 46.0
100 37.0 28.0
101 32.0 25.0
102 41.0 37.0
103 56.0 53.0
104 59.0 52.0
105 35.0 30.0
106 7.0 23.0
107 43.0 55.0
108 69.0 28.0
109 58.0 37.0
110 42.0 29.0
111 33.0 26.0
112 41.0 39.0
113 72.0 17.0
114 62.0 16.0
115 42.0 47.0
116 29.0 22.0
117 60.0 55.0
118 9.0 53.0
119 54.0 21.0
120 56.0 18.0
121 37.0 23.0
122 60.0 18.0
123 12.0 42.0
124 43.0 20.0
125 8.0 20.0
126 30.0 20.0
127 45.0 48.0
128 55.0 3.0
129 54.0 5.0
130 44.0 37.0
131 57.0 22.0
132 64.0 15.0
133 9.0 37.0
134 8.0 56.0
135 11.0 52.0
136 52.0 53.0
137 13.0 46.0
138 61.0 10.0
139 4.0 22.0
140 58.0 32.0
141 55.0 42.0
142 39.0 55.0
143 37.0 37.0
144 45.0 50.0
145 10.0 28.0
146 54.0 7.0
147 14.0 53.0
148 73.0 20.0
149 60.0 50.0
150 6.0 24.0
151 40.0 26.0
152 29.0 26.0
153 60.0 59.0
154 55.0 17.0
155 4.0 24.0
156 12.0 37.0
157 70.0 24.0
158 38.0 56.0
159 7.0 50.0
160 55.0 44.0
161 28.0 27.0
162 11.0 20.0
163 45.0 52.0
164 2.0 26.0
165 68.0 26.0
166 57.0 26.0
167 37.0 57.0
168 5.0 52.0
169 43.0 36.0
170 60.0 52.0
171 40.0 37.0
172 53.0 31.0
173 8.0 26.0
174 57.0 10.0
175 39.0 59.0
176 9.0 25.0
177 54.0 57.0
178 10.0 23.0
179 59.0 44.0
180 25.0 21.0
181 51.0 33.0
182 63.0 14.0
183 5.0 54.0
184 40.0 21.0
185 60.0 54.0
186 51.0 51.0
187 13.0 34.0
188 6.0 28.0
189 55.0 12.0
190 38.0 42.0
191 64.0 24.0
192 58.0 20.0
193 34.0 20.0
194 50.0 16.0
195 28.0 22.0
196 57.0 3.0
197 74.0 19.0
198 65.0 16.0
199 66.0 15.0
200 39.0 61.0
201 36.0 44.0
202 11.0 24.0
203 56.0 56.0
204 9.0 36.0
205 29.0 23.0
206 55.0 5.0
207 18.0 20.0
208 51.0 53.0
209 67.0 16.0
210 43.0 58.0
211 54.0 43.0
212 9.0 20.0
213 54.0 52.0
214 45.0 49.0
215 65.0 27.0
216 43.0 24.0
217 45.0 58.0
218 13.0 20.0
219 57.0 32.0
220 29.0 25.0
221 51.0 55.0
222 52.0 54.0
223 61.0 11.0
224 54.0 27.0
225 56.0 24.0
226 36.0 21.0
227 54.0 45.0
228 24.0 22.0
229 16.0 27.0
230 7.0 24.0
231 78.0 20.0
232 55.0 27.0
233 56.0 26.0
234 36.0 23.0
235 14.0 20.0
236 40.0 39.0
237 40.0 48.0
238 40.0 57.0
239 12.0 50.0
240 13.0 24.0
START_DEPOT_SECTION
1
2
3
4
5
6
7
8
9
10
11
12
13
14
15
16
17
18
19
20
21
22
23
24
25
26
27
28
29
30
-1
END_DEPOT_SECTION
31
32
33
34
35
36
37
38
39
40
41
42
43
44
45
46
47
48
49
50
51
52
53
54
55
56
57
58
59
60
-1
EOF
